&inputPP
    prefix = 'Na.PBE.TN' ,
    outdir = '.'
/
