&inputPP
    prefix = 'Na.HSE.TN' ,
    outdir = '.'
/
