 &control
    prefix= 'Na.HSE.TN' ,
    pseudo_dir = '.',
    outdir='.',
    wf_collect=.true.,
/
 &system
    ibrav=  1, celldm(1) =8.103, nat=  2, ntyp= 1,
    ecutwfc = 140 , tot_charge=0, nbnd=4,
    input_dft= 'HSE',
    nosym=.true.,
    noinv=.true.,
    occupations='smearing',
    degauss=0.003,
    smearing='fd',
 /
 &electrons
    !mixing_beta=0.4,
    conv_thr=2.D-8
 /
ATOMIC_SPECIES
  Na  22.0     Na.TN_DF.upf
ATOMIC_POSITIONS crystal
 Na 0. 0. 0.
 Na 0.5 0.5 0.5
K_POINTS automatic
1 1 1 0 0 0

