 &control
    prefix= 'Na.PBE.TN' ,
    pseudo_dir = '.',
    outdir='.',
    wf_collect=.true.,
/
 &system
    ibrav=  1, celldm(1) =8.103, nat=  2, ntyp= 1,
    ecutwfc = 40 , tot_charge=0, nbnd=2,
    input_dft= 'PBE',
    nosym=.true.,
    noinv=.true.,
    occupations='smearing',
    degauss=0.002,
    smearing='fd',
 /
 &electrons
    !mixing_beta=0.4,
    conv_thr=1.D-8
 /
ATOMIC_SPECIES
  Na  22.0     Na.TN_DF.upf
ATOMIC_POSITIONS crystal
 Na 0. 0. 0.
 Na 0.5 0.5 0.5
K_POINTS automatic
3 3 3 0 0 0

